# Objective value = 16
WA1n 0
WA1p 0
WA2n 1
WA2p 0
WB1n 0
WB1p 0
WB2n 1
WB2p 0
WC1n 1
WC1p 0
WC2n 1
WC2p 0
WD1n 0
WD1p 1
WD2n 0
WD2p 1
WE1n 0
WE1p 2
WF1n 3
WF1p 0
WT1n 0
WT1p 1
5 7
a 0
b 0
c 0
d 0
e 0
f 0
g 1
h 1
i 1
j 0
k 1
